100
32
25
4
19
15
27
7
29
27
18
18
8
8
28
19
7
26
13
18
8
1
9
7
1
10
13
16
19
17
7
4
2
1
7
2
15
1
14
1
1
17
9
20
15
16
3
13
9
10
1
5
3
11
2
4
10
2
1
2
1
19
1
17
3
21
2
2
3
1
2
2
1
1
3
5
5
17
5
3
1
4
1
2
5
1
1
7
8
1
2
3
17
1
2
4
1
2
3
1
9
17